Gurobi 9.1.2 (linux64) logging started Fri Mar  4 10:42:02 2022

Gurobi Optimizer version 9.1.2 build v9.1.2rc0 (linux64)
Thread count: 12 physical cores, 24 logical processors, using up to 1 threads
Optimize a model with 10575 rows, 10575 columns and 120530 nonzeros
Model fingerprint: 0xc7bdfa00
Model has 106041 quadratic objective terms
Variable types: 10535 continuous, 40 integer (40 binary)
Coefficient statistics:
  Matrix range     [4e-04, 1e+00]
  Objective range  [5e-38, 4e-03]
  QObjective range [3e-06, 7e-05]
  Bounds range     [1e+00, 1e+00]
  RHS range        [2e+00, 2e+00]
Found heuristic solution: objective 23.6079018
Presolve removed 2656 rows and 2656 columns
Presolve time: 0.27s
Presolved: 7919 rows, 7919 columns, 107572 nonzeros
Presolved model has 78378 quadratic objective terms
Variable types: 7879 continuous, 40 integer (40 binary)
Warning: Markowitz tolerance tightened to 0.125
Warning: Markowitz tolerance tightened to 0.25
Warning: Markowitz tolerance tightened to 0.5

Root simplex log...

Iteration    Objective       Primal Inf.    Dual Inf.      Time
    6038    1.3507135e+01   0.000000e+00   5.468847e+02      5s
    8365    1.3507135e+01   0.000000e+00   6.698364e+02     10s
    8534    7.4837383e+00   0.000000e+00   0.000000e+00     12s

Root relaxation: objective 7.483738e+00, 8534 iterations, 11.80 seconds

    Nodes    |    Current Node    |     Objective Bounds      |     Work
 Expl Unexpl |  Obj  Depth IntInf | Incumbent    BestBd   Gap | It/Node Time

     0     0    7.48374    0   40   23.60790    7.48374  68.3%     -   12s
     0     0    7.59274    0   40   23.60790    7.59274  67.8%     -   14s
H    0     0                      12.1969600    7.59274  37.7%     -   15s
     0     0    7.63413    0   40   12.19696    7.63413  37.4%     -   17s
     0     0    7.76794    0   40   12.19696    7.76794  36.3%     -   18s
     0     0    7.88363    0   40   12.19696    7.88363  35.4%     -   21s
     0     0    8.04666    0   40   12.19696    8.04666  34.0%     -   22s
     0     0    8.06822    0   40   12.19696    8.06822  33.9%     -   24s
     0     0    8.12322    0   40   12.19696    8.12322  33.4%     -   27s
     0     0    8.15630    0   40   12.19696    8.15630  33.1%     -   29s
     0     0    8.22228    0   40   12.19696    8.22228  32.6%     -   31s
     0     0    8.23665    0   40   12.19696    8.23665  32.5%     -   33s
     0     0    8.31165    0   40   12.19696    8.31165  31.9%     -   36s
     0     0    8.31694    0   40   12.19696    8.31694  31.8%     -   38s
     0     0    8.36314    0   40   12.19696    8.36314  31.4%     -   41s
     0     0    8.38339    0   40   12.19696    8.38339  31.3%     -   43s
     0     0    8.40403    0   40   12.19696    8.40403  31.1%     -   45s
     0     0    8.40418    0   40   12.19696    8.40418  31.1%     -   48s
     0     0    8.44565    0   40   12.19696    8.44565  30.8%     -   49s
     0     0    8.45615    0   40   12.19696    8.45615  30.7%     -   51s
     0     0    8.57582    0   40   12.19696    8.57582  29.7%     -   54s
     0     0    8.58074    0   40   12.19696    8.58074  29.6%     -   56s
     0     0    8.60870    0   40   12.19696    8.60870  29.4%     -   59s
     0     0    8.66141    0   40   12.19696    8.66141  29.0%     -   61s
     0     0    8.66927    0   40   12.19696    8.66927  28.9%     -   64s
     0     0    8.66968    0   40   12.19696    8.66968  28.9%     -   67s
     0     0    8.73934    0   40   12.19696    8.73934  28.3%     -   69s
     0     0    8.74966    0   40   12.19696    8.74966  28.3%     -   73s
     0     0    8.76713    0   40   12.19696    8.76713  28.1%     -   75s
     0     0    8.77233    0   40   12.19696    8.77233  28.1%     -   78s
     0     0    8.81594    0   40   12.19696    8.81594  27.7%     -   80s
     0     0    8.82885    0   40   12.19696    8.82885  27.6%     -   83s
     0     0    8.86098    0   40   12.19696    8.86098  27.4%     -   85s
     0     0    8.86128    0   40   12.19696    8.86128  27.3%     -   87s
     0     0    8.89423    0   40   12.19696    8.89423  27.1%     -   90s
     0     0    8.90904    0   40   12.19696    8.90904  27.0%     -   92s
     0     0    8.90907    0   40   12.19696    8.90907  27.0%     -   94s
     0     0    8.92683    0   40   12.19696    8.92683  26.8%     -   96s
     0     0    8.92795    0   40   12.19696    8.92795  26.8%     -  100s
     0     0    8.93373    0   40   12.19696    8.93373  26.8%     -  102s
     0     0    8.93385    0   40   12.19696    8.93385  26.8%     -  105s
     0     0    8.96758    0   40   12.19696    8.96758  26.5%     -  107s
     0     0    8.98150    0   40   12.19696    8.98150  26.4%     -  110s
     0     0    8.99789    0   40   12.19696    8.99789  26.2%     -  113s
     0     0    8.99792    0   40   12.19696    8.99792  26.2%     -  116s
     0     0    9.01557    0   40   12.19696    9.01557  26.1%     -  119s
     0     0    9.02186    0   40   12.19696    9.02186  26.0%     -  123s
     0     0    9.03932    0   40   12.19696    9.03932  25.9%     -  126s
     0     0    9.04505    0   40   12.19696    9.04505  25.8%     -  130s
     0     0    9.05871    0   40   12.19696    9.05871  25.7%     -  133s
     0     0    9.06348    0   40   12.19696    9.06348  25.7%     -  137s
     0     0    9.08646    0   40   12.19696    9.08646  25.5%     -  141s
     0     0    9.09164    0   40   12.19696    9.09164  25.5%     -  145s
     0     0    9.11050    0   40   12.19696    9.11050  25.3%     -  150s
     0     0    9.11051    0   40   12.19696    9.11051  25.3%     -  155s
     0     0    9.12788    0   40   12.19696    9.12788  25.2%     -  158s
     0     0    9.12992    0   40   12.19696    9.12992  25.1%     -  162s
     0     0    9.14607    0   40   12.19696    9.14607  25.0%     -  166s
     0     0    9.14612    0   40   12.19696    9.14612  25.0%     -  171s
     0     0    9.15047    0   40   12.19696    9.15047  25.0%     -  174s
     0     0    9.15047    0   40   12.19696    9.15047  25.0%     -  180s
     0     0    9.15116    0   40   12.19696    9.15116  25.0%     -  184s
     0     0    9.15329    0   40   12.19696    9.15329  25.0%     -  189s
     0     0    9.15395    0   40   12.19696    9.15395  24.9%     -  192s
     0     0    9.15767    0   40   12.19696    9.15767  24.9%     -  196s
     0     0    9.15769    0   40   12.19696    9.15769  24.9%     -  200s
     0     0    9.16064    0   40   12.19696    9.16064  24.9%     -  204s
     0     0    9.16077    0   40   12.19696    9.16077  24.9%     -  209s
     0     0    9.16342    0   40   12.19696    9.16342  24.9%     -  215s
     0     0    9.16378    0   40   12.19696    9.16378  24.9%     -  217s
     0     0    9.16713    0   40   12.19696    9.16713  24.8%     -  221s
     0     0    9.16975    0   40   12.19696    9.16975  24.8%     -  225s
     0     0    9.17007    0   40   12.19696    9.17007  24.8%     -  228s
     0     0    9.17261    0   40   12.19696    9.17261  24.8%     -  232s
     0     0    9.17262    0   40   12.19696    9.17262  24.8%     -  236s
     0     0    9.17396    0   40   12.19696    9.17396  24.8%     -  238s
     0     0   12.15093    0    2   12.19696   12.15093  0.38%     -  265s
     0     2   12.15928    0    2   12.19696   12.15928  0.31%     -  272s

Cutting planes:
  Cover: 3
  Network: 33

Explored 4 nodes (9793 simplex iterations) in 272.97 seconds
Thread count was 1 (of 24 available processors)

Solution count 2: 12.197 23.6079 

Optimal solution found (tolerance 1.00e-04)
Best objective 1.219695995102e+01, best bound 1.219695995102e+01, gap 0.0000%
